problems/csplib-prob015/SchursLemma-models/noch/O2/lingeling/model_1_2-4-14-solution000001.eprime-solution
language ESSENCE' 1.0

letting boxes_PartitionAsSet_ExplicitR6_ExplicitVarSizeWithDummy be
        [[1, 3, 5, 7, 14, 15, 15, 15, 15, 15, 15, 15, 15, 15; int(1..14)],
         [2, 15, 15, 15, 15, 15, 15, 15, 15, 15, 15, 15, 15, 15; int(1..14)],
         [4, 15, 15, 15, 15, 15, 15, 15, 15, 15, 15, 15, 15, 15; int(1..14)],
         [6, 8, 9, 10, 11, 12, 13, 15, 15, 15, 15, 15, 15, 15; int(1..14)]; int(1..4)]
