problems/csplib-prob015/SchursLemma-models/noch/O2/lingeling/model_1_2-4-14-solution000001.solution
language Essence 1.3

letting boxes be partition({1, 3, 5, 7, 14}, {2}, {4}, {6, 8, 9, 10, 11, 12, 13})
